(set-info :source |printed by MathSAT|)
(declare-fun param__S_.next () Bool)
(declare-fun call__main_.call_controleur2.flby () Bool)
(declare-fun call__main_.call_controleur2.retard.next () Bool)
(declare-fun param__B0_.next () Bool)
(declare-fun call__main_.call_controleur.ite2.next () Bool)
(declare-fun call__main_.call_controleur.retard () Bool)
(declare-fun call__main_.call_controleur.avance.next () Bool)
(declare-fun call__main_.ite2.next () Int)
(declare-fun call__main_.flby2.next () Int)
(declare-fun call__main_.retard1.next () Bool)
(declare-fun call__main_.avance1.next () Bool)
(declare-fun call__main_.call_hypothese.flby2.next () Int)
(declare-fun call__main_.call_hypothese.flby () Bool)
(declare-fun call__main_._H1_ () Bool)
(declare-fun call__main_.call_controleur.flby () Bool)
(declare-fun call__main_.flby () Int)
(declare-fun call__main_.call_hypothese2.ite.next () Bool)
(declare-fun call__main_.call_hypothese.c () Int)
(declare-fun call__main_.nB1 () Int)
(declare-fun call__main_.retard0 () Bool)
(declare-fun call__main_.avance1 () Bool)
(declare-fun call__main_.nB0.next () Int)
(declare-fun call__main_.call_hypothese2.c.next () Int)
(declare-fun flby () Bool)
(declare-fun call__main_.call_hypothese.ite.next () Bool)
(declare-fun call__main_.diff1.next () Int)
(declare-fun call__main_.retard1 () Bool)
(declare-fun call_Sofar.Sofar () Bool)
(declare-fun ast () Bool)
(declare-fun call__main_.call_hypothese2.ite3.next () Int)
(declare-fun pOK.next () Bool)
(declare-fun diff1 () Int)
(declare-fun call__main_.call_controleur.diff.next () Int)
(declare-fun avance0 () Bool)
(declare-fun call__main_.nB0 () Int)
(declare-fun call__main_.call_controleur2.flby2 () Bool)
(declare-fun call__main_._H0_.next () Bool)
(declare-fun call__main_.call_hypothese.flby2 () Int)
(declare-fun call__main_.call_controleur2.ite.next () Bool)
(declare-fun avance1 () Bool)
(declare-fun call__main_.nS.next () Int)
(declare-fun _OK_ () Bool)
(declare-fun call__main_.call_hypothese2.flby2 () Int)
(declare-fun call__main_.call_controleur2.flby2.next () Bool)
(declare-fun call__main_.call_hypothese.ite2.next () Bool)
(declare-fun call__main_.call_controleur.diff () Int)
(declare-fun call__main_.call_hypothese2.flby2.next () Int)
(declare-fun call__main_.call_hypothese.ok () Bool)
(declare-fun ast.next () Bool)
(declare-fun flby2.next () Bool)
(declare-fun call__main_.call_hypothese2.ite4.next () Int)
(declare-fun call__main_.call_hypothese.flby.next () Bool)
(declare-fun call__main_.avance0 () Bool)
(declare-fun call__main_.flby3 () Int)
(declare-fun call__main_.flby3.next () Int)
(declare-fun call__main_.call_hypothese.c.next () Int)
(declare-fun call__main_.call_controleur.ite.next () Bool)
(declare-fun pOK () Bool)
(declare-fun call__main_.call_controleur2.ite2.next () Bool)
(declare-fun call__main_.call_controleur.retard.next () Bool)
(declare-fun call__main_.diff0.next () Int)
(declare-fun call__main_.call_hypothese2.ite2.next () Bool)
(declare-fun call__main_.call_controleur.flby.next () Bool)
(declare-fun call__main_.call_hypothese.ite4.next () Int)
(declare-fun call__main_.nS () Int)
(declare-fun nS.next () Int)
(declare-fun call__main_.call_controleur2.diff.next () Int)
(declare-fun call__main_.call_hypothese.ok.next () Bool)
(declare-fun call__main_.call_hypothese.ite3.next () Int)
(declare-fun avance0.next () Bool)
(declare-fun call__main_.call_controleur.flby2.next () Bool)
(declare-fun call__main_.nB1.next () Int)
(declare-fun retard0.next () Bool)
(declare-fun call_Sofar.flby () Bool)
(declare-fun call__main_.flby.next () Int)
(declare-fun call__main_.call_controleur.flby2 () Bool)
(declare-fun diff0 () Int)
(declare-fun diff0.next () Int)
(declare-fun call__main_.call_hypothese2.flby.next () Bool)
(declare-fun nS () Int)
(declare-fun call__main_.ite3.next () Int)
(declare-fun call__main_.call_controleur.avance () Bool)
(declare-fun flby.next () Bool)
(declare-fun call__main_.avance0.next () Bool)
(declare-fun nB1 () Int)
(declare-fun call__main_.call_controleur2.avance.next () Bool)
(declare-fun nB0 () Int)
(declare-fun param__B1_.next () Bool)
(declare-fun retard1 () Bool)
(declare-fun call__main_.ast.next () Bool)
(declare-fun nB1.next () Int)
(declare-fun call__main_.call_hypothese2.c () Int)
(declare-fun call_Sofar.flby.next () Bool)
(declare-fun retard0 () Bool)
(declare-fun call__main_.call_controleur2.avance () Bool)
(declare-fun call__main_.diff0 () Int)
(declare-fun call__main_.ast () Bool)
(declare-fun call__main_._H0_ () Bool)
(declare-fun call__main_.diff1 () Int)
(declare-fun _OK_.next () Bool)
(declare-fun nB0.next () Int)
(declare-fun call__main_.call_controleur2.flby.next () Bool)
(declare-fun call__main_._H1_.next () Bool)
(declare-fun retard1.next () Bool)
(declare-fun flby2 () Bool)
(declare-fun call__main_.call_hypothese2.ok () Bool)
(declare-fun call__main_.flby2 () Int)
(declare-fun call_Sofar.Sofar.next () Bool)
(declare-fun call__main_.ite.next () Int)
(declare-fun call__main_.call_hypothese2.flby () Bool)
(declare-fun call__main_.call_hypothese2.ok.next () Bool)
(declare-fun call__main_.call_controleur2.retard () Bool)
(declare-fun call__main_.retard0.next () Bool)
(declare-fun diff1.next () Int)
(declare-fun avance1.next () Bool)
(declare-fun call__main_.call_controleur2.diff () Int)
(define-fun .def_989 () Bool (= call_Sofar.flby.next call_Sofar.Sofar.next))
(define-fun .def_987 () Bool (= call__main_.call_controleur2.flby2.next call__main_.call_controleur2.retard.next))
(define-fun .def_985 () Bool (= call__main_.call_controleur2.flby.next call__main_.call_controleur2.avance.next))
(define-fun .def_978 () Int (* (- 1) call__main_.nB1.next))
(define-fun .def_981 () Int (+ .def_978 call__main_.nS.next))
(define-fun .def_982 () Int (+ call__main_.call_controleur2.diff.next .def_981))
(define-fun .def_983 () Bool (= .def_982 0))
(define-fun .def_976 () Bool (= call__main_.call_controleur.flby2.next call__main_.call_controleur.retard.next))
(define-fun .def_974 () Bool (= call__main_.call_controleur.flby.next call__main_.call_controleur.avance.next))
(define-fun .def_967 () Int (* (- 1) call__main_.nB0.next))
(define-fun .def_970 () Int (+ .def_967 call__main_.nS.next))
(define-fun .def_971 () Int (+ call__main_.call_controleur.diff.next .def_970))
(define-fun .def_972 () Bool (= .def_971 0))
(define-fun .def_965 () Bool (= call__main_.call_hypothese2.flby2.next call__main_.call_hypothese2.c.next))
(define-fun .def_962 () Bool (= call__main_.call_hypothese2.flby.next call__main_.call_hypothese2.ok.next))
(define-fun .def_960 () Bool (= call__main_.call_hypothese.flby2.next call__main_.call_hypothese.c.next))
(define-fun .def_957 () Bool (= call__main_.call_hypothese.flby.next call__main_.call_hypothese.ok.next))
(define-fun .def_955 () Bool (= call__main_._H1_.next call__main_.call_hypothese2.ok.next))
(define-fun .def_952 () Bool (= call__main_._H0_.next call__main_.call_hypothese.ok.next))
(define-fun .def_949 () Bool (= call__main_.retard1.next call__main_.call_controleur2.retard.next))
(define-fun .def_946 () Bool (= call__main_.retard0.next call__main_.call_controleur.retard.next))
(define-fun .def_943 () Bool (= call__main_.avance1.next call__main_.call_controleur2.avance.next))
(define-fun .def_940 () Bool (= call__main_.avance0.next call__main_.call_controleur.avance.next))
(define-fun .def_937 () Bool (= call__main_.call_controleur2.diff.next call__main_.diff1.next))
(define-fun .def_935 () Bool (= call__main_.call_controleur.diff.next call__main_.diff0.next))
(define-fun .def_933 () Bool (= call__main_.flby3.next call__main_.nS.next))
(define-fun .def_931 () Bool (= call__main_.flby2.next call__main_.nB1.next))
(define-fun .def_929 () Bool (= call__main_.flby.next call__main_.nB0.next))
(define-fun .def_926 () Bool (and call__main_._H0_.next call__main_._H1_.next))
(define-fun .def_927 () Bool (= call__main_.ast.next .def_926))
(define-fun .def_922 () Bool (= ast.next call__main_.ast.next))
(define-fun .def_919 () Bool (= flby.next pOK.next))
(define-fun .def_916 () Bool (= retard1.next call__main_.retard1.next))
(define-fun .def_912 () Bool (= retard0.next call__main_.retard0.next))
(define-fun .def_909 () Bool (= call__main_.avance1.next avance1.next))
(define-fun .def_906 () Bool (= avance0.next call__main_.avance0.next))
(define-fun .def_904 () Bool (= diff1.next call__main_.diff1.next))
(define-fun .def_900 () Bool (= diff0.next call__main_.diff0.next))
(define-fun .def_897 () Bool (= nS.next call__main_.nS.next))
(define-fun .def_894 () Bool (= nB1.next call__main_.nB1.next))
(define-fun .def_891 () Bool (= nB0.next call__main_.nB0.next))
(define-fun .def_887 () Bool (not call_Sofar.Sofar.next))
(define-fun .def_888 () Bool (or flby2.next .def_887))
(define-fun .def_889 () Bool (= _OK_.next .def_888))
(define-fun .def_892 () Bool (and .def_889 .def_891))
(define-fun .def_895 () Bool (and .def_892 .def_894))
(define-fun .def_898 () Bool (and .def_895 .def_897))
(define-fun .def_901 () Bool (and .def_898 .def_900))
(define-fun .def_905 () Bool (and .def_901 .def_904))
(define-fun .def_907 () Bool (and .def_905 .def_906))
(define-fun .def_910 () Bool (and .def_907 .def_909))
(define-fun .def_913 () Bool (and .def_910 .def_912))
(define-fun .def_917 () Bool (and .def_913 .def_916))
(define-fun .def_920 () Bool (and .def_917 .def_919))
(define-fun .def_923 () Bool (and .def_920 .def_922))
(define-fun .def_928 () Bool (and .def_923 .def_927))
(define-fun .def_930 () Bool (and .def_928 .def_929))
(define-fun .def_932 () Bool (and .def_930 .def_931))
(define-fun .def_934 () Bool (and .def_932 .def_933))
(define-fun .def_936 () Bool (and .def_934 .def_935))
(define-fun .def_938 () Bool (and .def_936 .def_937))
(define-fun .def_941 () Bool (and .def_938 .def_940))
(define-fun .def_944 () Bool (and .def_941 .def_943))
(define-fun .def_947 () Bool (and .def_944 .def_946))
(define-fun .def_950 () Bool (and .def_947 .def_949))
(define-fun .def_953 () Bool (and .def_950 .def_952))
(define-fun .def_956 () Bool (and .def_953 .def_955))
(define-fun .def_958 () Bool (and .def_956 .def_957))
(define-fun .def_961 () Bool (and .def_958 .def_960))
(define-fun .def_963 () Bool (and .def_961 .def_962))
(define-fun .def_966 () Bool (and .def_963 .def_965))
(define-fun .def_973 () Bool (and .def_966 .def_972))
(define-fun .def_975 () Bool (and .def_973 .def_974))
(define-fun .def_977 () Bool (and .def_975 .def_976))
(define-fun .def_984 () Bool (and .def_977 .def_983))
(define-fun .def_986 () Bool (and .def_984 .def_985))
(define-fun .def_988 () Bool (and .def_986 .def_987))
(define-fun .def_990 () Bool (and .def_988 .def_989))
(define-fun .def_674 () Bool (= call_Sofar.flby call_Sofar.Sofar))
(define-fun .def_672 () Bool (= call__main_.call_controleur2.flby2 call__main_.call_controleur2.retard))
(define-fun .def_670 () Bool (= call__main_.call_controleur2.flby call__main_.call_controleur2.avance))
(define-fun .def_665 () Int (* (- 1) call__main_.call_controleur2.diff))
(define-fun .def_653 () Int (* (- 1) call__main_.nS))
(define-fun .def_666 () Int (+ .def_653 .def_665))
(define-fun .def_667 () Int (+ call__main_.nB1 .def_666))
(define-fun .def_668 () Bool (= .def_667 0))
(define-fun .def_660 () Bool (= call__main_.call_controleur.flby2 call__main_.call_controleur.retard))
(define-fun .def_658 () Bool (= call__main_.call_controleur.flby call__main_.call_controleur.avance))
(define-fun .def_652 () Int (* (- 1) call__main_.call_controleur.diff))
(define-fun .def_654 () Int (+ .def_653 .def_652))
(define-fun .def_655 () Int (+ call__main_.nB0 .def_654))
(define-fun .def_656 () Bool (= .def_655 0))
(define-fun .def_647 () Bool (= call__main_.call_hypothese2.flby2 call__main_.call_hypothese2.c))
(define-fun .def_644 () Bool (= call__main_.call_hypothese2.flby call__main_.call_hypothese2.ok))
(define-fun .def_642 () Bool (= call__main_.call_hypothese.flby2 call__main_.call_hypothese.c))
(define-fun .def_639 () Bool (= call__main_.call_hypothese.flby call__main_.call_hypothese.ok))
(define-fun .def_637 () Bool (= call__main_._H1_ call__main_.call_hypothese2.ok))
(define-fun .def_634 () Bool (= call__main_._H0_ call__main_.call_hypothese.ok))
(define-fun .def_631 () Bool (= call__main_.retard1 call__main_.call_controleur2.retard))
(define-fun .def_628 () Bool (= call__main_.retard0 call__main_.call_controleur.retard))
(define-fun .def_625 () Bool (= call__main_.avance1 call__main_.call_controleur2.avance))
(define-fun .def_622 () Bool (= call__main_.avance0 call__main_.call_controleur.avance))
(define-fun .def_619 () Bool (= call__main_.diff1 call__main_.call_controleur2.diff))
(define-fun .def_616 () Bool (= call__main_.diff0 call__main_.call_controleur.diff))
(define-fun .def_613 () Bool (= call__main_.flby3 call__main_.nS))
(define-fun .def_611 () Bool (= call__main_.flby2 call__main_.nB1))
(define-fun .def_609 () Bool (= call__main_.flby call__main_.nB0))
(define-fun .def_606 () Bool (and call__main_._H0_ call__main_._H1_))
(define-fun .def_607 () Bool (= call__main_.ast .def_606))
(define-fun .def_602 () Bool (= ast call__main_.ast))
(define-fun .def_599 () Bool (= flby pOK))
(define-fun .def_596 () Bool (= retard1 call__main_.retard1))
(define-fun .def_592 () Bool (= retard0 call__main_.retard0))
(define-fun .def_588 () Bool (= avance1 call__main_.avance1))
(define-fun .def_584 () Bool (= avance0 call__main_.avance0))
(define-fun .def_580 () Bool (= diff1 call__main_.diff1))
(define-fun .def_576 () Bool (= diff0 call__main_.diff0))
(define-fun .def_573 () Bool (= nS call__main_.nS))
(define-fun .def_570 () Bool (= nB1 call__main_.nB1))
(define-fun .def_567 () Bool (= nB0 call__main_.nB0))
(define-fun .def_563 () Bool (not call_Sofar.Sofar))
(define-fun .def_564 () Bool (or flby2 .def_563))
(define-fun .def_565 () Bool (= _OK_ .def_564))
(define-fun .def_568 () Bool (and .def_565 .def_567))
(define-fun .def_571 () Bool (and .def_568 .def_570))
(define-fun .def_574 () Bool (and .def_571 .def_573))
(define-fun .def_577 () Bool (and .def_574 .def_576))
(define-fun .def_581 () Bool (and .def_577 .def_580))
(define-fun .def_585 () Bool (and .def_581 .def_584))
(define-fun .def_589 () Bool (and .def_585 .def_588))
(define-fun .def_593 () Bool (and .def_589 .def_592))
(define-fun .def_597 () Bool (and .def_593 .def_596))
(define-fun .def_600 () Bool (and .def_597 .def_599))
(define-fun .def_603 () Bool (and .def_600 .def_602))
(define-fun .def_608 () Bool (and .def_603 .def_607))
(define-fun .def_610 () Bool (and .def_608 .def_609))
(define-fun .def_612 () Bool (and .def_610 .def_611))
(define-fun .def_614 () Bool (and .def_612 .def_613))
(define-fun .def_617 () Bool (and .def_614 .def_616))
(define-fun .def_620 () Bool (and .def_617 .def_619))
(define-fun .def_623 () Bool (and .def_620 .def_622))
(define-fun .def_626 () Bool (and .def_623 .def_625))
(define-fun .def_629 () Bool (and .def_626 .def_628))
(define-fun .def_632 () Bool (and .def_629 .def_631))
(define-fun .def_635 () Bool (and .def_632 .def_634))
(define-fun .def_638 () Bool (and .def_635 .def_637))
(define-fun .def_640 () Bool (and .def_638 .def_639))
(define-fun .def_643 () Bool (and .def_640 .def_642))
(define-fun .def_645 () Bool (and .def_643 .def_644))
(define-fun .def_648 () Bool (and .def_645 .def_647))
(define-fun .def_657 () Bool (and .def_648 .def_656))
(define-fun .def_659 () Bool (and .def_657 .def_658))
(define-fun .def_661 () Bool (and .def_659 .def_660))
(define-fun .def_669 () Bool (and .def_661 .def_668))
(define-fun .def_671 () Bool (and .def_669 .def_670))
(define-fun .def_673 () Bool (and .def_671 .def_672))
(define-fun .def_675 () Bool (and .def_673 .def_674))
(define-fun .def_991 () Bool (and .def_675 .def_990))
(define-fun .def_878 () Bool (<= 32767 diff0.next))
(define-fun .def_879 () Bool (not .def_878))
(define-fun .def_874 () Bool (<= 1 nS.next))
(define-fun .def_875 () Bool (not .def_874))
(define-fun .def_870 () Bool (<= 1 nB1.next))
(define-fun .def_871 () Bool (not .def_870))
(define-fun .def_865 () Bool (<= 1 nB0.next))
(define-fun .def_866 () Bool (not .def_865))
(define-fun .def_868 () Bool (and .def_866 ast.next))
(define-fun .def_872 () Bool (and .def_868 .def_871))
(define-fun .def_876 () Bool (and .def_872 .def_875))
(define-fun .def_880 () Bool (and .def_876 .def_879))
(define-fun .def_881 () Bool (and call_Sofar.Sofar .def_880))
(define-fun .def_883 () Bool (= .def_881 call_Sofar.flby.next))
(define-fun .def_862 () Bool (= call__main_.call_controleur2.ite2.next call__main_.call_controleur2.flby2.next))
(define-fun .def_859 () Bool (= call__main_.call_controleur2.ite.next call__main_.call_controleur2.flby.next))
(define-fun .def_852 () Bool (<= 0 call__main_.call_controleur2.diff.next))
(define-fun .def_853 () Bool (not .def_852))
(define-fun .def_854 () Bool (= call__main_.call_controleur2.ite2.next .def_853))
(define-fun .def_851 () Bool (not call__main_.call_controleur2.retard))
(define-fun .def_855 () Bool (or .def_851 .def_854))
(define-fun .def_846 () Bool (<= call__main_.call_controleur2.diff.next (- 10)))
(define-fun .def_848 () Bool (= .def_846 call__main_.call_controleur2.ite2.next))
(define-fun .def_849 () Bool (or call__main_.call_controleur2.retard .def_848))
(define-fun .def_842 () Bool (<= 10 call__main_.call_controleur2.diff.next))
(define-fun .def_843 () Bool (= call__main_.call_controleur2.ite.next .def_842))
(define-fun .def_844 () Bool (or call__main_.call_controleur2.avance .def_843))
(define-fun .def_837 () Bool (<= call__main_.call_controleur2.diff.next 0))
(define-fun .def_838 () Bool (not .def_837))
(define-fun .def_840 () Bool (= .def_838 call__main_.call_controleur2.ite.next))
(define-fun .def_835 () Bool (not call__main_.call_controleur2.avance))
(define-fun .def_841 () Bool (or .def_835 .def_840))
(define-fun .def_845 () Bool (and .def_841 .def_844))
(define-fun .def_850 () Bool (and .def_845 .def_849))
(define-fun .def_856 () Bool (and .def_850 .def_855))
(define-fun .def_833 () Bool (= call__main_.call_controleur.ite2.next call__main_.call_controleur.flby2.next))
(define-fun .def_830 () Bool (= call__main_.call_controleur.ite.next call__main_.call_controleur.flby.next))
(define-fun .def_823 () Bool (<= 0 call__main_.call_controleur.diff.next))
(define-fun .def_824 () Bool (not .def_823))
(define-fun .def_825 () Bool (= call__main_.call_controleur.ite2.next .def_824))
(define-fun .def_822 () Bool (not call__main_.call_controleur.retard))
(define-fun .def_826 () Bool (or .def_822 .def_825))
(define-fun .def_817 () Bool (<= call__main_.call_controleur.diff.next (- 10)))
(define-fun .def_819 () Bool (= .def_817 call__main_.call_controleur.ite2.next))
(define-fun .def_820 () Bool (or call__main_.call_controleur.retard .def_819))
(define-fun .def_813 () Bool (<= 10 call__main_.call_controleur.diff.next))
(define-fun .def_814 () Bool (= call__main_.call_controleur.ite.next .def_813))
(define-fun .def_815 () Bool (or call__main_.call_controleur.avance .def_814))
(define-fun .def_808 () Bool (<= call__main_.call_controleur.diff.next 0))
(define-fun .def_809 () Bool (not .def_808))
(define-fun .def_811 () Bool (= .def_809 call__main_.call_controleur.ite.next))
(define-fun .def_806 () Bool (not call__main_.call_controleur.avance))
(define-fun .def_812 () Bool (or .def_806 .def_811))
(define-fun .def_816 () Bool (and .def_812 .def_815))
(define-fun .def_821 () Bool (and .def_816 .def_820))
(define-fun .def_827 () Bool (and .def_821 .def_826))
(define-fun .def_804 () Bool (= call__main_.call_hypothese2.ite4.next call__main_.call_hypothese2.flby2.next))
(define-fun .def_799 () Bool (and call__main_.call_hypothese2.ite2.next call__main_.call_hypothese2.ite.next))
(define-fun .def_801 () Bool (= .def_799 call__main_.call_hypothese2.flby.next))
(define-fun .def_684 () Bool (<= 9 call__main_.call_hypothese2.c))
(define-fun .def_797 () Bool (or call__main_.call_hypothese2.ite2.next .def_684))
(define-fun .def_795 () Bool (= call__main_.call_hypothese.ite4.next call__main_.call_hypothese.flby2.next))
(define-fun .def_790 () Bool (and call__main_.call_hypothese.ite2.next call__main_.call_hypothese.ite.next))
(define-fun .def_792 () Bool (= .def_790 call__main_.call_hypothese.flby.next))
(define-fun .def_706 () Bool (<= 9 call__main_.call_hypothese.c))
(define-fun .def_788 () Bool (or call__main_.call_hypothese.ite2.next .def_706))
(define-fun .def_786 () Bool (= call__main_.ite3.next call__main_.flby3.next))
(define-fun .def_783 () Bool (= call__main_.ite2.next call__main_.flby2.next))
(define-fun .def_780 () Bool (= call__main_.ite.next call__main_.flby.next))
(define-fun .def_777 () Bool (or call__main_.retard1 call__main_.call_hypothese2.ite.next))
(define-fun .def_775 () Bool (or call__main_.retard0 call__main_.call_hypothese.ite.next))
(define-fun .def_768 () Bool (and call__main_.avance1 call__main_.avance1.next))
(define-fun .def_771 () Bool (not .def_768))
(define-fun .def_770 () Bool (= call__main_.call_hypothese2.ite3.next call__main_.call_hypothese2.ite4.next))
(define-fun .def_772 () Bool (or .def_770 .def_771))
(define-fun .def_766 () Bool (= call__main_.call_hypothese2.ite4.next 0))
(define-fun .def_769 () Bool (or .def_766 .def_768))
(define-fun .def_773 () Bool (and .def_769 .def_772))
(define-fun .def_758 () Bool (and call__main_.avance0 call__main_.avance0.next))
(define-fun .def_761 () Bool (not .def_758))
(define-fun .def_760 () Bool (= call__main_.call_hypothese.ite3.next call__main_.call_hypothese.ite4.next))
(define-fun .def_762 () Bool (or .def_760 .def_761))
(define-fun .def_756 () Bool (= call__main_.call_hypothese.ite4.next 0))
(define-fun .def_759 () Bool (or .def_756 .def_758))
(define-fun .def_763 () Bool (and .def_759 .def_762))
(define-fun .def_753 () Bool (= pOK flby2.next))
(define-fun .def_746 () Bool (and retard0 avance0.next))
(define-fun .def_744 () Bool (and avance0 retard0.next))
(define-fun .def_747 () Bool (or .def_744 .def_746))
(define-fun .def_748 () Bool (not .def_747))
(define-fun .def_750 () Bool (= .def_748 flby.next))
(define-fun .def_739 () Bool (= call__main_.nS call__main_.ite3.next))
(define-fun .def_740 () Bool (or param__S_.next .def_739))
(define-fun .def_734 () Int (* (- 1) call__main_.ite3.next))
(define-fun .def_735 () Int (+ call__main_.nS .def_734))
(define-fun .def_736 () Bool (= .def_735 (- 1)))
(define-fun .def_723 () Bool (not param__S_.next))
(define-fun .def_737 () Bool (or .def_723 .def_736))
(define-fun .def_730 () Bool (not call__main_.retard0))
(define-fun .def_729 () Bool (= .def_723 call__main_.call_hypothese.ite.next))
(define-fun .def_731 () Bool (or .def_729 .def_730))
(define-fun .def_726 () Bool (not call__main_.retard1))
(define-fun .def_725 () Bool (= .def_723 call__main_.call_hypothese2.ite.next))
(define-fun .def_727 () Bool (or .def_725 .def_726))
(define-fun .def_732 () Bool (and .def_727 .def_731))
(define-fun .def_738 () Bool (and .def_732 .def_737))
(define-fun .def_741 () Bool (and .def_738 .def_740))
(define-fun .def_718 () Bool (= call__main_.nB0 call__main_.ite.next))
(define-fun .def_719 () Bool (or param__B0_.next .def_718))
(define-fun .def_713 () Int (* (- 1) call__main_.ite.next))
(define-fun .def_714 () Int (+ call__main_.nB0 .def_713))
(define-fun .def_715 () Bool (= .def_714 (- 2)))
(define-fun .def_702 () Bool (not param__B0_.next))
(define-fun .def_716 () Bool (or .def_702 .def_715))
(define-fun .def_700 () Bool (= call__main_.call_hypothese.c call__main_.call_hypothese.ite3.next))
(define-fun .def_710 () Bool (or .def_700 param__B0_.next))
(define-fun .def_707 () Bool (not .def_706))
(define-fun .def_705 () Bool (= .def_702 call__main_.call_hypothese.ite2.next))
(define-fun .def_708 () Bool (or .def_705 .def_707))
(define-fun .def_703 () Bool (or .def_700 .def_702))
(define-fun .def_709 () Bool (and .def_703 .def_708))
(define-fun .def_711 () Bool (and .def_709 .def_710))
(define-fun .def_717 () Bool (and .def_711 .def_716))
(define-fun .def_720 () Bool (and .def_717 .def_719))
(define-fun .def_696 () Bool (= call__main_.nB1 call__main_.ite2.next))
(define-fun .def_697 () Bool (or param__B1_.next .def_696))
(define-fun .def_691 () Int (* (- 1) call__main_.ite2.next))
(define-fun .def_692 () Int (+ call__main_.nB1 .def_691))
(define-fun .def_693 () Bool (= .def_692 (- 1)))
(define-fun .def_680 () Bool (not param__B1_.next))
(define-fun .def_694 () Bool (or .def_680 .def_693))
(define-fun .def_678 () Bool (= call__main_.call_hypothese2.c call__main_.call_hypothese2.ite3.next))
(define-fun .def_688 () Bool (or .def_678 param__B1_.next))
(define-fun .def_685 () Bool (not .def_684))
(define-fun .def_683 () Bool (= .def_680 call__main_.call_hypothese2.ite2.next))
(define-fun .def_686 () Bool (or .def_683 .def_685))
(define-fun .def_681 () Bool (or .def_678 .def_680))
(define-fun .def_687 () Bool (and .def_681 .def_686))
(define-fun .def_689 () Bool (and .def_687 .def_688))
(define-fun .def_695 () Bool (and .def_689 .def_694))
(define-fun .def_698 () Bool (and .def_695 .def_697))
(define-fun .def_721 () Bool (and .def_698 .def_720))
(define-fun .def_742 () Bool (and .def_721 .def_741))
(define-fun .def_751 () Bool (and .def_742 .def_750))
(define-fun .def_754 () Bool (and .def_751 .def_753))
(define-fun .def_764 () Bool (and .def_754 .def_763))
(define-fun .def_774 () Bool (and .def_764 .def_773))
(define-fun .def_776 () Bool (and .def_774 .def_775))
(define-fun .def_778 () Bool (and .def_776 .def_777))
(define-fun .def_781 () Bool (and .def_778 .def_780))
(define-fun .def_784 () Bool (and .def_781 .def_783))
(define-fun .def_787 () Bool (and .def_784 .def_786))
(define-fun .def_789 () Bool (and .def_787 .def_788))
(define-fun .def_793 () Bool (and .def_789 .def_792))
(define-fun .def_796 () Bool (and .def_793 .def_795))
(define-fun .def_798 () Bool (and .def_796 .def_797))
(define-fun .def_802 () Bool (and .def_798 .def_801))
(define-fun .def_805 () Bool (and .def_802 .def_804))
(define-fun .def_828 () Bool (and .def_805 .def_827))
(define-fun .def_831 () Bool (and .def_828 .def_830))
(define-fun .def_834 () Bool (and .def_831 .def_833))
(define-fun .def_857 () Bool (and .def_834 .def_856))
(define-fun .def_860 () Bool (and .def_857 .def_859))
(define-fun .def_863 () Bool (and .def_860 .def_862))
(define-fun .def_884 () Bool (and .def_863 .def_883))
(define-fun .def_992 () Bool (and .def_884 .def_991))
(assert .def_992)
